NAME          ClpDefau
ROWS
 N  OBJROW
 E  R0000000
 E  R0000001
 E  R0000002
 E  R0000003
 E  R0000004
 E  R0000005
 E  R0000006
 E  R0000007
 E  R0000008
 E  R0000009
 E  R0000010
 E  R0000011
 E  R0000012
 E  R0000013
 E  R0000014
 E  R0000015
 E  R0000016
 E  R0000017
 E  R0000018
 E  R0000019
 E  R0000020
 E  R0000021
 E  R0000022
 E  R0000023
 E  R0000024
 E  R0000025
 E  R0000026
 E  R0000027
 E  R0000028
 E  R0000029
 E  R0000030
 E  R0000031
 E  R0000032
 L  R0000033
 L  R0000034
 L  R0000035
 L  R0000036
 L  R0000037
 L  R0000038
 L  R0000039
 L  R0000040
 L  R0000041
 L  R0000042
 L  R0000043
 L  R0000044
 L  R0000045
 L  R0000046
 L  R0000047
 L  R0000048
 L  R0000049
 L  R0000050
 L  R0000051
 L  R0000052
 L  R0000053
 L  R0000054
 L  R0000055
 L  R0000056
 L  R0000057
 L  R0000058
 L  R0000059
 L  R0000060
 L  R0000061
 L  R0000062
 L  R0000063
 L  R0000064
 L  R0000065
 L  R0000066
 L  R0000067
 L  R0000068
 L  R0000069
 L  R0000070
 L  R0000071
 L  R0000072
 L  R0000073
 L  R0000074
 L  R0000075
 L  R0000076
 L  R0000077
 L  R0000078
 L  R0000079
 L  R0000080
 L  R0000081
 L  R0000082
 L  R0000083
 L  R0000084
 L  R0000085
 L  R0000086
 L  R0000087
 L  R0000088
 L  R0000089
 L  R0000090
 L  R0000091
 L  R0000092
 L  R0000093
 L  R0000094
 L  R0000095
 L  R0000096
 L  R0000097
 L  R0000098
 L  R0000099
 L  R0000100
 L  R0000101
 L  R0000102
 L  R0000103
 L  R0000104
 L  R0000105
 L  R0000106
 L  R0000107
 L  R0000108
 L  R0000109
 L  R0000110
 L  R0000111
 L  R0000112
 L  R0000113
 L  R0000114
 L  R0000115
 L  R0000116
 L  R0000117
 L  R0000118
 L  R0000119
 L  R0000120
 L  R0000121
 L  R0000122
 L  R0000123
 L  R0000124
 L  R0000125
 L  R0000126
 L  R0000127
 L  R0000128
 L  R0000129
 L  R0000130
 L  R0000131
 L  R0000132
 L  R0000133
 L  R0000134
 L  R0000135
 L  R0000136
 L  R0000137
COLUMNS
    C0000000  OBJROW    1.             R0000033  45.         
    C0000000  R0000048  1.             R0000093   -2.        
    C0000001  OBJROW    1.             R0000034  45.         
    C0000001  R0000051  1.             R0000096   -2.        
    C0000002  OBJROW    1.             R0000035  45.         
    C0000002  R0000054  1.             R0000099   -2.        
    C0000003  OBJROW    1.             R0000036  45.         
    C0000003  R0000057  1.             R0000102   -2.        
    C0000004  OBJROW    1.             R0000037  45.         
    C0000004  R0000060  1.             R0000105   -2.        
    C0000005  OBJROW    1.             R0000038  45.         
    C0000005  R0000063  1.             R0000108   -2.        
    C0000006  OBJROW    1.             R0000039  45.         
    C0000006  R0000066  1.             R0000111   -2.        
    C0000007  OBJROW    1.             R0000040  45.         
    C0000007  R0000069  1.             R0000114   -2.        
    C0000008  OBJROW    1.             R0000041  45.         
    C0000008  R0000072  1.             R0000117   -2.        
    C0000009  OBJROW    1.             R0000042  45.         
    C0000009  R0000075  1.             R0000120   -2.        
    C0000010  OBJROW    1.             R0000043  45.         
    C0000010  R0000078  1.             R0000123   -2.        
    C0000011  OBJROW    1000.          R0000044  45.         
    C0000011  R0000081  1.             R0000126   -2.        
    C0000012  OBJROW    1000.          R0000045  45.         
    C0000012  R0000084  1.             R0000129   -2.        
    C0000013  OBJROW    1000.          R0000046  45.         
    C0000013  R0000087  1.             R0000132   -2.        
    C0000014  OBJROW    1000.          R0000047  45.         
    C0000014  R0000090  1.             R0000135   -2.        
    C0000015  OBJROW    1.             R0000033  35.         
    C0000015  R0000049  1.             R0000094   -1.        
    C0000016  OBJROW    1.             R0000034  35.         
    C0000016  R0000052  1.             R0000097   -1.        
    C0000017  OBJROW    1.             R0000035  35.         
    C0000017  R0000055  1.             R0000100   -1.        
    C0000018  OBJROW    1.             R0000036  35.         
    C0000018  R0000058  1.             R0000103   -1.        
    C0000019  OBJROW    1.             R0000037  35.         
    C0000019  R0000061  1.             R0000106   -1.        
    C0000020  OBJROW    1.             R0000038  35.         
    C0000020  R0000064  1.             R0000109   -1.        
    C0000021  OBJROW    1.             R0000039  35.         
    C0000021  R0000067  1.             R0000112   -1.        
    C0000022  OBJROW    1.             R0000040  35.         
    C0000022  R0000070  1.             R0000115   -1.        
    C0000023  OBJROW    1.             R0000041  35.         
    C0000023  R0000073  1.             R0000118   -1.        
    C0000024  OBJROW    1.             R0000042  35.         
    C0000024  R0000076  1.             R0000121   -1.        
    C0000025  OBJROW    1.             R0000043  35.         
    C0000025  R0000079  1.             R0000124   -1.        
    C0000026  OBJROW    1000.          R0000044  35.         
    C0000026  R0000082  1.             R0000127   -1.        
    C0000027  OBJROW    1000.          R0000045  35.         
    C0000027  R0000085  1.             R0000130   -1.        
    C0000028  OBJROW    1000.          R0000046  35.         
    C0000028  R0000088  1.             R0000133   -1.        
    C0000029  OBJROW    1000.          R0000047  35.         
    C0000029  R0000091  1.             R0000136   -1.        
    C0000030  OBJROW    1.             R0000033  70.         
    C0000030  R0000050  1.             R0000095   -1.        
    C0000031  OBJROW    1.             R0000034  70.         
    C0000031  R0000053  1.             R0000098   -1.        
    C0000032  OBJROW    1.             R0000035  70.         
    C0000032  R0000056  1.             R0000101   -1.        
    C0000033  OBJROW    1.             R0000036  70.         
    C0000033  R0000059  1.             R0000104   -1.        
    C0000034  OBJROW    1.             R0000037  70.         
    C0000034  R0000062  1.             R0000107   -1.        
    C0000035  OBJROW    1.             R0000038  70.         
    C0000035  R0000065  1.             R0000110   -1.        
    C0000036  OBJROW    1.             R0000039  70.         
    C0000036  R0000068  1.             R0000113   -1.        
    C0000037  OBJROW    1.             R0000040  70.         
    C0000037  R0000071  1.             R0000116   -1.        
    C0000038  OBJROW    1.             R0000041  70.         
    C0000038  R0000074  1.             R0000119   -1.        
    C0000039  OBJROW    1.             R0000042  70.         
    C0000039  R0000077  1.             R0000122   -1.        
    C0000040  OBJROW    1.             R0000043  70.         
    C0000040  R0000080  1.             R0000125   -1.        
    C0000041  OBJROW    1000.          R0000044  70.         
    C0000041  R0000083  1.             R0000128   -1.        
    C0000042  OBJROW    1000.          R0000045  70.         
    C0000042  R0000086  1.             R0000131   -1.        
    C0000043  OBJROW    1000.          R0000046  70.         
    C0000043  R0000089  1.             R0000134   -1.        
    C0000044  OBJROW    1000.          R0000047  70.         
    C0000044  R0000092  1.             R0000137   -1.        
    C0000045  R0000000   -2.           R0000012  2.          
    C0000045  R0000015  2.             R0000048   -2.        
    C0000045  R0000093  2.          
    C0000046  R0000006   -2.           R0000012  2.          
    C0000046  R0000015  2.             R0000051   -2.        
    C0000046  R0000096  2.          
    C0000047  R0000006   -2.           R0000018  2.          
    C0000047  R0000054   -2.           R0000099  2.          
    C0000048  R0000000  2.             R0000003   -2.        
    C0000048  R0000057   -2.           R0000102  2.          
    C0000049  R0000000  2.             R0000009   -2.        
    C0000049  R0000060   -2.           R0000105  2.          
    C0000050  R0000003   -2.           R0000006  2.          
    C0000050  R0000063   -2.           R0000108  2.          
    C0000051  R0000006  2.             R0000009   -2.        
    C0000051  R0000066   -2.           R0000111  2.          
    C0000052  R0000003  2.             R0000021   -2.        
    C0000052  R0000024   -2.           R0000069   -2.        
    C0000052  R0000114  2.          
    C0000053  R0000003  2.             R0000027   -2.        
    C0000053  R0000030   -2.           R0000072   -2.        
    C0000053  R0000117  2.          
    C0000054  R0000009  2.             R0000021   -2.        
    C0000054  R0000024   -2.           R0000075   -2.        
    C0000054  R0000120  2.          
    C0000055  R0000009  2.             R0000027   -2.        
    C0000055  R0000030   -2.           R0000078   -2.        
    C0000055  R0000123  2.          
    C0000056  R0000012  2.             R0000015  2.          
    C0000056  R0000021   -2.           R0000024   -2.        
    C0000056  R0000081   -2.           R0000126  2.          
    C0000057  R0000012  2.             R0000015  2.          
    C0000057  R0000027   -2.           R0000030   -2.        
    C0000057  R0000084   -2.           R0000129  2.          
    C0000058  R0000018  2.             R0000021   -2.        
    C0000058  R0000024   -2.           R0000087   -2.        
    C0000058  R0000132  2.          
    C0000059  R0000018  2.             R0000027   -2.        
    C0000059  R0000030   -2.           R0000090   -2.        
    C0000059  R0000135  2.          
    C0000060  R0000001   -1.           R0000013  1.          
    C0000060  R0000016  1.             R0000049   -1.        
    C0000060  R0000094  1.          
    C0000061  R0000007   -1.           R0000013  1.          
    C0000061  R0000016  1.             R0000052   -1.        
    C0000061  R0000097  1.          
    C0000062  R0000007   -1.           R0000019  1.          
    C0000062  R0000055   -1.           R0000100  1.          
    C0000063  R0000001  1.             R0000004   -1.        
    C0000063  R0000058   -1.           R0000103  1.          
    C0000064  R0000001  1.             R0000010   -1.        
    C0000064  R0000061   -1.           R0000106  1.          
    C0000065  R0000004   -1.           R0000007  1.          
    C0000065  R0000064   -1.           R0000109  1.          
    C0000066  R0000007  1.             R0000010   -1.        
    C0000066  R0000067   -1.           R0000112  1.          
    C0000067  R0000004  1.             R0000022   -1.        
    C0000067  R0000025   -1.           R0000070   -1.        
    C0000067  R0000115  1.          
    C0000068  R0000004  1.             R0000028   -1.        
    C0000068  R0000031   -1.           R0000073   -1.        
    C0000068  R0000118  1.          
    C0000069  R0000010  1.             R0000022   -1.        
    C0000069  R0000025   -1.           R0000076   -1.        
    C0000069  R0000121  1.          
    C0000070  R0000010  1.             R0000028   -1.        
    C0000070  R0000031   -1.           R0000079   -1.        
    C0000070  R0000124  1.          
    C0000071  R0000013  1.             R0000016  1.          
    C0000071  R0000022   -1.           R0000025   -1.        
    C0000071  R0000082   -1.           R0000127  1.          
    C0000072  R0000013  1.             R0000016  1.          
    C0000072  R0000028   -1.           R0000031   -1.        
    C0000072  R0000085   -1.           R0000130  1.          
    C0000073  R0000019  1.             R0000022   -1.        
    C0000073  R0000025   -1.           R0000088   -1.        
    C0000073  R0000133  1.          
    C0000074  R0000019  1.             R0000028   -1.        
    C0000074  R0000031   -1.           R0000091   -1.        
    C0000074  R0000136  1.          
    C0000075  R0000002   -1.           R0000014  1.          
    C0000075  R0000017  1.             R0000050   -1.        
    C0000075  R0000095  1.          
    C0000076  R0000008   -1.           R0000014  1.          
    C0000076  R0000017  1.             R0000053   -1.        
    C0000076  R0000098  1.          
    C0000077  R0000008   -1.           R0000020  1.          
    C0000077  R0000056   -1.           R0000101  1.          
    C0000078  R0000002  1.             R0000005   -1.        
    C0000078  R0000059   -1.           R0000104  1.          
    C0000079  R0000002  1.             R0000011   -1.        
    C0000079  R0000062   -1.           R0000107  1.          
    C0000080  R0000005   -1.           R0000008  1.          
    C0000080  R0000065   -1.           R0000110  1.          
    C0000081  R0000008  1.             R0000011   -1.        
    C0000081  R0000068   -1.           R0000113  1.          
    C0000082  R0000005  1.             R0000023   -1.        
    C0000082  R0000026   -1.           R0000071   -1.        
    C0000082  R0000116  1.          
    C0000083  R0000005  1.             R0000029   -1.        
    C0000083  R0000032   -1.           R0000074   -1.        
    C0000083  R0000119  1.          
    C0000084  R0000011  1.             R0000023   -1.        
    C0000084  R0000026   -1.           R0000077   -1.        
    C0000084  R0000122  1.          
    C0000085  R0000011  1.             R0000029   -1.        
    C0000085  R0000032   -1.           R0000080   -1.        
    C0000085  R0000125  1.          
    C0000086  R0000014  1.             R0000017  1.          
    C0000086  R0000023   -1.           R0000026   -1.        
    C0000086  R0000083   -1.           R0000128  1.          
    C0000087  R0000014  1.             R0000017  1.          
    C0000087  R0000029   -1.           R0000032   -1.        
    C0000087  R0000086   -1.           R0000131  1.          
    C0000088  R0000020  1.             R0000023   -1.        
    C0000088  R0000026   -1.           R0000089   -1.        
    C0000088  R0000134  1.          
    C0000089  R0000020  1.             R0000029   -1.        
    C0000089  R0000032   -1.           R0000092   -1.        
    C0000089  R0000137  1.          
RHS
    RHS       R0000012  2.             R0000013  1.          
    RHS       R0000015  2.             R0000016  1.          
    RHS       R0000020  1.             R0000021   -1.        
    RHS       R0000022   -1.           R0000024   -1.        
    RHS       R0000025   -1.           R0000027   -1.        
    RHS       R0000029   -1.           R0000030   -1.        
    RHS       R0000032   -1.           R0000033  70.         
    RHS       R0000034  70.            R0000035  70.         
    RHS       R0000036  70.            R0000037  70.         
    RHS       R0000038  70.            R0000039  70.         
    RHS       R0000040  70.            R0000041  70.         
    RHS       R0000042  70.            R0000043  70.         
    RHS       R0000044  4.             R0000045  4.          
    RHS       R0000046  4.             R0000047  4.          
BOUNDS
 UI BOUND     C0000000         1e+30
 UI BOUND     C0000001         1e+30
 UI BOUND     C0000002         1e+30
 UI BOUND     C0000003         1e+30
 UI BOUND     C0000004         1e+30
 UI BOUND     C0000005         1e+30
 UI BOUND     C0000006         1e+30
 UI BOUND     C0000007         1e+30
 UI BOUND     C0000008         1e+30
 UI BOUND     C0000009         1e+30
 UI BOUND     C0000010         1e+30
 UI BOUND     C0000011         1e+30
 UI BOUND     C0000012         1e+30
 UI BOUND     C0000013         1e+30
 UI BOUND     C0000014         1e+30
 UI BOUND     C0000015         1e+30
 UI BOUND     C0000016         1e+30
 UI BOUND     C0000017         1e+30
 UI BOUND     C0000018         1e+30
 UI BOUND     C0000019         1e+30
 UI BOUND     C0000020         1e+30
 UI BOUND     C0000021         1e+30
 UI BOUND     C0000022         1e+30
 UI BOUND     C0000023         1e+30
 UI BOUND     C0000024         1e+30
 UI BOUND     C0000025         1e+30
 UI BOUND     C0000026         1e+30
 UI BOUND     C0000027         1e+30
 UI BOUND     C0000028         1e+30
 UI BOUND     C0000029         1e+30
 UI BOUND     C0000030         1e+30
 UI BOUND     C0000031         1e+30
 UI BOUND     C0000032         1e+30
 UI BOUND     C0000033         1e+30
 UI BOUND     C0000034         1e+30
 UI BOUND     C0000035         1e+30
 UI BOUND     C0000036         1e+30
 UI BOUND     C0000037         1e+30
 UI BOUND     C0000038         1e+30
 UI BOUND     C0000039         1e+30
 UI BOUND     C0000040         1e+30
 UI BOUND     C0000041         1e+30
 UI BOUND     C0000042         1e+30
 UI BOUND     C0000043         1e+30
 UI BOUND     C0000044         1e+30
ENDATA
